% File represents an instance of a Composite Structure problem to be solved by a CP framework
% Created on 2025-03-26 10:41:53.158
T = 50;
n = 36;
m = 60;
edges = [(1, 2),
(7, 8),
(13, 14),
(19, 20),
(25, 26),
(31, 32),
(2, 3),
(9, 8),
(15, 14),
(20, 21),
(26, 27),
(33, 32),
(4, 3),
(9, 10),
(15, 16),
(21, 22),
(27, 28),
(33, 34),
(4, 5),
(11, 10),
(17, 16),
(23, 22),
(29, 28),
(34, 35),
(5, 6),
(11, 12),
(17, 18),
(24, 23),
(30, 29),
(36, 35),
(1, 7),
(7, 13),
(19, 13),
(19, 25),
(25, 31),
(2, 8),
(8, 14),
(20, 14),
(20, 26),
(26, 32),
(9, 3),
(9, 15),
(15, 21),
(21, 27),
(33, 27),
(4, 10),
(10, 16),
(16, 22),
(22, 28),
(34, 28),
(5, 11),
(17, 11),
(17, 23),
(23, 29),
(29, 35),
(6, 12),
(18, 12),
(24, 18),
(24, 30),
(30, 36)];
counts = [|10, 12, 10, 18,
|10, 12, 10, 12,
|10, 12, 10, 10,
|10, 14, 10, 10,
|10, 12, 10, 10,
|10, 6, 10, 10,
|8, 12, 8, 16,
|8, 10, 8, 12,
|10, 12, 10, 12,
|10, 8, 10, 10,
|10, 10, 10, 10,
|10, 4, 10, 10,
|8, 10, 8, 12,
|8, 6, 8, 12,
|10, 8, 10, 12,
|10, 6, 10, 10,
|10, 10, 10, 12,
|10, 8, 10, 10,
|8, 12, 8, 14,
|8, 10, 8, 12,
|8, 6, 8, 12,
|8, 6, 8, 10,
|10, 6, 10, 12,
|10, 8, 10, 12,
|8, 10, 8, 12,
|8, 6, 8, 12,
|8, 4, 8, 12,
|8, 4, 8, 8,
|8, 6, 8, 12,
|8, 8, 8, 12,
|8, 6, 8, 10,
|8, 4, 8, 10,
|8, 6, 8, 14,
|8, 6, 8, 12,
|6, 6, 6, 12,
|6, 8, 6, 12|];
